# Generated by ConicBenchmarkUtilities.jl
VER
2

OBJSENSE
MIN

VAR
80 1
F 80

INT
20
10
11
12
13
14
15
16
17
18
19
20
21
22
23
24
25
26
27
28
29

CON
245 217
L= 1
L= 1
L= 1
L= 1
L= 1
L= 1
L= 1
L= 1
L= 1
L= 1
L= 1
EXP 3
L+ 1
L+ 1
L+ 1
EXP 3
L+ 1
L+ 1
L+ 1
L+ 1
L+ 1
L+ 1
L+ 1
EXP 3
L+ 1
L+ 1
L+ 1
L+ 1
L+ 1
L+ 1
L+ 1
L+ 1
L+ 1
L+ 1
EXP 3
L+ 1
L+ 1
L+ 1
EXP 3
L+ 1
L+ 1
L+ 1
EXP 3
L+ 1
L+ 1
L+ 1
L+ 1
L+ 1
L+ 1
L+ 1
L+ 1
L+ 1
L+ 1
L+ 1
EXP 3
L+ 1
L+ 1
L+ 1
L+ 1
L+ 1
L+ 1
L+ 1
L+ 1
L+ 1
L+ 1
EXP 3
L+ 1
L+ 1
L+ 1
EXP 3
L+ 1
L+ 1
L+ 1
EXP 3
L+ 1
EXP 3
L+ 1
L+ 1
L+ 1
L+ 1
L+ 1
L+ 1
L+ 1
L+ 1
L+ 1
L+ 1
L+ 1
L+ 1
EXP 3
L+ 1
L+ 1
L+ 1
EXP 3
L+ 1
L+ 1
L+ 1
EXP 3
L+ 1
L+ 1
L+ 1
L= 1
L+ 1
L+ 1
L+ 1
L+ 1
L+ 1
L+ 1
L+ 1
L+ 1
L+ 1
L+ 1
L+ 1
L+ 1
L+ 1
L+ 1
L+ 1
L+ 1
L+ 1
L+ 1
L+ 1
L+ 1
L+ 1
L+ 1
L+ 1
L+ 1
L+ 1
L+ 1
L+ 1
L+ 1
L+ 1
L+ 1
L+ 1
L+ 1
L+ 1
L+ 1
L+ 1
L+ 1
L+ 1
L+ 1
L+ 1
L+ 1
L+ 1
L+ 1
L+ 1
L+ 1
L+ 1
L+ 1
L+ 1
L+ 1
L+ 1
L+ 1
L+ 1
L+ 1
L+ 1
L+ 1
L+ 1
L+ 1
L+ 1
L+ 1
L+ 1
L+ 1
L+ 1
L+ 1
L+ 1
L+ 1
L+ 1
L+ 1
L+ 1
L+ 1
L+ 1
L+ 1
L+ 1
L+ 1
L+ 1
L+ 1
L+ 1
L+ 1
L+ 1
L+ 1
L+ 1
L+ 1
L+ 1
L+ 1
L+ 1
L+ 1
L+ 1
L+ 1
L+ 1
L+ 1
L+ 1
L+ 1
L+ 1
L+ 1
L+ 1
L+ 1
L+ 1
L+ 1
L+ 1
L+ 1
L+ 1
L+ 1
L+ 1
L+ 1
L+ 1
L+ 1
L+ 1
L+ 1
L+ 1
L+ 1
L+ 1
L+ 1
L+ 1
L+ 1
L+ 1
L+ 1
L+ 1
L+ 1

OBJACOORD
1
30 -1.0

ACOORD
429
0 0 5.0
3 0 -1.0
163 0 1.0
0 1 200.0
72 1 -1.0
73 1 1.0
74 1 -1.0
75 1 1.0
78 1 -1.0
196 1 1.0
0 2 250.0
82 2 -1.0
84 2 -1.0
197 2 1.0
0 3 200.0
88 3 -1.0
90 3 -1.0
198 3 1.0
0 4 700.0
94 4 -1.0
98 4 -1.0
101 4 -1.0
199 4 1.0
0 5 400.0
102 5 -1.0
103 5 1.0
105 5 -1.0
200 5 1.0
0 6 500.0
106 6 -1.0
107 6 1.0
109 6 -1.0
201 6 1.0
0 7 400.0
113 7 -1.0
115 7 -1.0
202 7 1.0
0 8 600.0
119 8 -1.0
121 8 -1.0
203 8 1.0
0 9 700.0
125 9 -1.0
127 9 -1.0
204 9 1.0
0 10 -5.0
14 10 -1.0
15 10 10.0
16 10 2.39789527279837
128 10 1.0
138 10 1.0
139 10 1.0
140 10 1.0
205 10 1.0
206 10 -1.0
0 11 -8.0
20 11 -1.0
21 11 10.0
22 11 2.87747432735804
128 11 1.0
138 11 1.0
139 11 1.0
140 11 1.0
207 11 1.0
208 11 -1.0
0 12 -6.0
23 12 -1.0
24 12 -1.0
25 12 2.87747432735804
26 12 2.15810574551853
129 12 -1.0
138 12 -1.0
141 12 1.0
142 12 1.0
209 12 1.0
210 12 -1.0
0 13 -10.0
30 13 -1.0
31 13 2.87747432735804
32 13 2.03277599268042
132 13 -1.0
139 13 -1.0
143 13 1.0
211 13 1.0
212 13 -1.0
0 14 -6.0
33 14 -1.0
34 14 -1.0
35 14 -1.0
36 14 -1.0
37 14 2.87747432735804
38 14 7.0
39 14 3.5
134 14 -1.0
140 14 -1.0
144 14 1.0
145 14 1.0
146 14 1.0
213 14 1.0
214 14 -1.0
0 15 -7.0
43 15 -1.0
44 15 2.15810574551853
45 15 1.43746550029693
129 15 1.0
130 15 -1.0
141 15 -1.0
147 15 1.0
215 15 1.0
216 15 -1.0
0 16 -4.0
49 16 -1.0
50 16 2.15810574551853
51 16 1.03497516021379
129 16 1.0
131 16 -1.0
142 16 -1.0
148 16 1.0
217 16 1.0
218 16 -1.0
0 17 -5.0
55 17 -1.0
56 17 2.03277599268042
57 17 1.10947836929589
132 17 1.0
133 17 -1.0
143 17 -1.0
149 17 1.0
150 17 1.0
219 17 1.0
220 17 -1.0
0 18 -2.0
58 18 -1.0
59 18 -1.0
60 18 3.5
61 18 3.15
134 18 1.0
135 18 -1.0
144 18 -1.0
221 18 1.0
222 18 -1.0
0 19 -4.0
62 19 -1.0
63 19 -1.0
64 19 3.5
65 19 2.1
134 19 1.0
136 19 -1.0
145 19 -1.0
151 19 1.0
152 19 1.0
223 19 1.0
224 19 -1.0
0 20 -3.0
69 20 -1.0
70 20 3.5
71 20 1.6544851364539
134 20 1.0
137 20 -1.0
146 20 -1.0
153 20 1.0
154 20 1.0
155 20 1.0
225 20 1.0
226 20 -1.0
0 21 -7.0
72 21 -1.0
73 21 -1.0
74 21 -1.0
75 21 -1.0
76 21 1.43746550029693
77 21 5.0
78 21 5.0
130 21 1.0
147 21 -1.0
227 21 1.0
228 21 -1.0
0 22 -3.0
82 22 -1.0
83 22 1.03497516021379
84 22 0.710483612536911
131 22 1.0
148 22 -1.0
229 22 1.0
230 22 -1.0
0 23 -2.0
88 23 -1.0
89 23 1.10947836929589
90 23 0.522508489006913
133 23 1.0
149 23 -1.0
231 23 1.0
232 23 -1.0
0 24 -4.0
94 24 -1.0
98 24 -1.0
99 24 1.10947836929589
100 24 8.15
101 24 1.43894002153683
133 24 1.0
135 24 1.0
150 24 -1.0
233 24 1.0
234 24 -1.0
0 25 -2.0
102 25 -1.0
103 25 -1.0
104 25 2.1
105 25 2.1
136 25 1.0
151 25 -1.0
235 25 1.0
236 25 -1.0
0 26 -3.0
106 26 -1.0
107 26 -1.0
108 26 2.1
109 26 2.1
136 26 1.0
152 26 -1.0
237 26 1.0
238 26 -1.0
0 27 -5.0
113 27 -1.0
114 27 1.6544851364539
115 27 0.732188035236726
137 27 1.0
153 27 -1.0
239 27 1.0
240 27 -1.0
0 28 -2.0
119 28 -1.0
120 28 1.6544851364539
121 28 0.781000570919175
137 28 1.0
154 28 -1.0
241 28 1.0
242 28 -1.0
0 29 -8.0
125 29 -1.0
126 29 1.6544851364539
127 29 0.829813106601623
137 29 1.0
155 29 -1.0
243 29 1.0
244 29 -1.0
0 30 -1.0
1 31 1.0
156 31 1.0
157 31 -1.0
1 32 -1.0
11 32 1.0
15 32 -1.0
158 32 1.0
1 33 -1.0
17 33 1.0
21 33 -1.0
159 33 1.0
2 34 -1.0
14 34 -1.0
16 34 -1.0
160 34 1.0
2 35 -1.0
20 35 -1.0
22 35 -1.0
161 35 1.0
2 36 1.0
3 36 1.0
162 36 1.0
3 37 -1.0
4 37 1.0
164 37 1.0
4 38 -1.0
23 38 0.75
24 38 -0.75
25 38 -1.0
165 38 1.0
4 39 -1.0
27 39 1.0
31 39 -1.0
166 39 1.0
4 40 -1.0
33 40 1.0
34 40 -1.0
37 40 -1.0
167 40 1.0
5 41 1.0
23 41 -1.0
24 41 1.0
26 41 -1.0
170 41 1.0
5 42 -1.0
40 42 1.0
44 42 -1.0
173 42 1.0
5 43 -1.0
46 43 1.0
50 43 -1.0
174 43 1.0
6 44 1.0
33 44 -1.0
34 44 1.0
35 44 -1.0
36 44 1.0
39 44 -1.0
172 44 1.0
6 45 -1.0
58 45 0.9
59 45 -0.9
60 45 -1.0
175 45 1.0
6 46 -1.0
62 46 0.6
63 46 -0.6
64 46 -1.0
176 46 1.0
6 47 -1.0
66 47 1.0
70 47 -1.0
177 47 1.0
7 48 1.0
55 48 -1.0
57 48 -1.0
180 48 1.0
7 49 -1.0
85 49 1.0
89 49 -1.0
184 49 1.0
7 50 -1.0
91 50 1.0
99 50 -1.0
185 50 1.0
8 51 -1.0
58 51 -1.0
59 51 1.0
61 51 -1.0
181 51 1.0
8 52 -1.0
188 52 1.0
189 52 -1.0
8 53 1.0
95 53 1.0
100 53 -1.0
190 53 1.0
9 54 1.0
62 54 -1.0
63 54 1.0
65 54 -1.0
182 54 1.0
9 55 -1.0
102 55 1.0
103 55 -1.0
104 55 -1.0
191 55 1.0
9 56 -1.0
106 56 1.0
107 56 -1.0
108 56 -1.0
192 56 1.0
10 57 1.0
69 57 -1.0
71 57 -1.0
183 57 1.0
10 58 -1.0
110 58 1.0
114 58 -1.0
193 58 1.0
10 59 -1.0
116 59 1.0
120 59 -1.0
194 59 1.0
10 60 -1.0
122 60 1.0
126 60 -1.0
195 60 1.0
13 61 1.0
14 61 1.0
19 62 1.0
20 62 1.2
29 63 1.0
30 63 1.5
30 64 -1.0
32 64 -1.0
52 64 1.0
56 64 -1.0
171 64 1.0
35 65 0.5
36 65 -0.5
38 65 -1.0
168 65 1.0
169 65 -1.0
42 66 1.0
43 66 1.25
43 67 -1.0
45 67 -1.0
72 67 0.9
73 67 -0.9
76 67 -1.0
178 67 1.0
48 68 1.0
49 68 0.9
49 69 -1.0
51 69 -1.0
79 69 1.0
83 69 -1.0
179 69 1.0
54 70 1.0
55 70 1.0
68 71 1.0
69 71 1.1
74 72 1.0
75 72 -1.0
77 72 -1.0
186 72 1.0
187 72 -1.0
81 73 1.0
82 73 1.0
87 74 1.0
88 74 0.7
93 75 1.0
94 75 0.65
97 76 1.0
98 76 0.65
112 77 1.0
113 77 0.75
118 78 1.0
119 78 0.8
124 79 1.0
125 79 0.85

BCOORD
85
11 1.0
12 1.0
14 1.0
17 1.0
18 1.0
20 1.0
23 1.0
24 1.0
27 1.0
28 1.0
30 1.0
33 1.0
34 1.0
35 1.0
36 1.0
40 1.0
41 1.0
43 1.0
46 1.0
47 1.0
49 1.0
52 1.0
53 1.0
55 1.0
58 1.0
59 1.0
62 1.0
63 1.0
66 1.0
67 1.0
69 1.0
72 1.0
73 1.0
74 1.0
75 1.0
79 1.0
80 1.0
82 1.0
85 1.0
86 1.0
88 1.0
91 1.0
92 1.0
94 1.0
95 1.0
96 1.0
98 1.0
102 1.0
103 1.0
106 1.0
107 1.0
110 1.0
111 1.0
113 1.0
116 1.0
117 1.0
119 1.0
122 1.0
123 1.0
125 1.0
128 -1.0
157 10.0
169 7.0
187 5.0
189 5.0
206 1.0
208 1.0
210 1.0
212 1.0
214 1.0
216 1.0
218 1.0
220 1.0
222 1.0
224 1.0
226 1.0
228 1.0
230 1.0
232 1.0
234 1.0
236 1.0
238 1.0
240 1.0
242 1.0
244 1.0
